language Essence 1.3

letting m be
        [[[0, 1, 2, 3, 4, 5],
          [0, 1, 2, 3, 4, 5],
          [0, 0, 0, 0, 0, 0],
          [0, 1, 2, 3, 4, 5],
          [0, 1, 2, 3, 4, 5],
          [0, 1, 2, 3, 4, 5]],
         [[0, 1, 2, 3, 4, 5],
          [0, 1, 2, 3, 4, 5],
          [0, 0, 0, 0, 0, 0],
          [0, 1, 2, 3, 4, 5],
          [0, 1, 2, 3, 4, 5],
          [0, 1, 2, 3, 4, 5]]]
